(set-info :status unknown)
(declare-fun %B () (_ BitVec 28))
(declare-fun %A () (_ BitVec 28))
(declare-fun %X () (_ BitVec 28))
(declare-fun u_%Y () (_ BitVec 8))
(declare-fun |ana_isPowerOf2(%A)| () (_ BitVec 1))
(assert
 (let ((?x11694 (bvshl %A %B)))
 (let ((?x19104 (bvsrem %X ?x11694)))
 (let (($x6950 (= |ana_isPowerOf2(%A)| (_ bv1 1))))
 (let (($x11639 (bvult %B (_ bv28 28))))
 (let (($x2694 (=> $x6950 (and (and (distinct %A (_ bv0 28)) true) (= (bvand %A (bvsub %A (_ bv1 28))) (_ bv0 28))))))
 (let (($x14539 (or (and (distinct %X (_ bv134217728 28)) true) (and (distinct ?x11694 (_ bv268435455 28)) true))))
 (let (($x2313 (and (distinct ?x11694 (_ bv0 28)) true)))
 (and $x11639 $x2313 $x14539 $x2694 $x11639 $x6950 (= u_%Y (_ bv1 8)) (and (distinct ?x19104 ?x19104) true))))))))))
(check-sat)
